100
32
31
29
3
14
27
11
7
12
24
6
25
15
7
21
23
8
8
9
7
16
14
12
32
13
16
7
8
20
16
15
10
8
22
3
5
25
6
11
28
27
5
18
22
2
16
15
13
6
10
15
14
1
21
28
23
7
22
12
5
12
8
8
16
1
30
14
21
28
21
27
13
17
11
27
3
7
8
19
4
28
4
28
21
29
10
8
21
2
17
9
17
2
6
29
26
2
16
16
6
4